Minimize
 obj: 0
Subject to

\true constraints
   93 X1
 +    89 X2
 +    77 X3
 +    99 X4
 +    77 X5
 +    93 X6
 +    98 X7
 +    64 X8
 +    96 X9
 +    93 X10
< 439.500000

\multiple objectives
 -  79 X1
 -    68 X2
 -    99 X3
 -    93 X4
 -    85 X5
 -    73 X6
 -    95 X7
 -    91 X8
 -    96 X9
 -    90 X10
< 1
 -  83 X1
 -    64 X2
 -    72 X3
 -    62 X4
 -    95 X5
 -    91 X6
 -    92 X7
 -    60 X8
 -    94 X9
 -    69 X10
< 2
 -  71 X1
 -    71 X2
 -    99 X3
 -    89 X4
 -    82 X5
 -    79 X6
 -    87 X7
 -    91 X8
 -    63 X9
 -    71 X10
< 3
 -  75 X1
 -    79 X2
 -    82 X3
 -    72 X4
 -    61 X5
 -    71 X6
 -    98 X7
 -    71 X8
 -    93 X9
 -    93 X10
< 4
 -  84 X1
 -    92 X2
 -    63 X3
 -    95 X4
 -    63 X5
 -    75 X6
 -    85 X7
 -    65 X8
 -    82 X9
 -    85 X10
< 5
 -  74 X1
 -    64 X2
 -    62 X3
 -    69 X4
 -    92 X5
 -    76 X6
 -    62 X7
 -    83 X8
 -    96 X9
 -    91 X10
< 6
 -  91 X1
 -    69 X2
 -    72 X3
 -    86 X4
 -    66 X5
 -    73 X6
 -    88 X7
 -    90 X8
 -    63 X9
 -    72 X10
< 7
 -  76 X1
 -    77 X2
 -    98 X3
 -    70 X4
 -    63 X5
 -    97 X6
 -    96 X7
 -    82 X8
 -    99 X9
 -    88 X10
< 8
 -  63 X1
 -    85 X2
 -    91 X3
 -    67 X4
 -    81 X5
 -    69 X6
 -    64 X7
 -    86 X8
 -    72 X9
 -    75 X10
< 9



BINARY
X1
X2
X3
X4
X5
X6
X7
X8
X9
X10
END
